           7
          10
           1           2          15
           2           2          15
           3           3           7
           4           1           9
           5           3           8
           6           2          12
           7           2          12
